100
1000
821
787
817
397
310
607
385
484
599
519
567
535
315
302
466
306
413
561
848
528
721
485
390
572
511
797
576
286
539
282
310
590
518
511
618
685
269
269
397
635
597
690
595
258
285
684
484
625
705
571
216
870
789
845
706
886
638
840
663
627
255
729
720
690
273
682
515
410
605
504
678
677
276
295
740
243
614
765
812
626
529
785
470
844
293
503
482
614
265
349
776
633
721
310
355
604
617
206
214
754
